<?xml version = "1.0" standalone="yes"?>
<!-- This file has been generated by DOcplex version 2.23.222  -->
<CPLEXSolution version="1.0">
 <header
   problemName="CVRP"
   objectiveValue="7298.73"
  />
 <variables>
  <variable name="x_0_2" index="1" value="1.00000"/>
  <variable name="x_0_7" index="6" value="1.00000"/>
  <variable name="x_0_8" index="7" value="1.00000"/>
  <variable name="x_0_9" index="8" value="1.00000"/>
  <variable name="x_0_10" index="9" value="1.00000"/>
  <variable name="x_1_4" index="13" value="1.00000"/>
  <variable name="x_2_0" index="20" value="1.00000"/>
  <variable name="x_3_5" index="34" value="1.00000"/>
  <variable name="x_4_0" index="40" value="1.00000"/>
  <variable name="x_5_0" index="50" value="1.00000"/>
  <variable name="x_6_0" index="60" value="1.00000"/>
  <variable name="x_7_0" index="70" value="1.00000"/>
  <variable name="x_8_1" index="81" value="1.00000"/>
  <variable name="x_9_6" index="96" value="1.00000"/>
  <variable name="x_10_3" index="103" value="1.00000"/>
  <variable name="u_1" index="110" value="24.00000"/>
  <variable name="u_2" index="111" value="40.00000"/>
  <variable name="u_3" index="112" value="36.00000"/>
  <variable name="u_4" index="113" value="39.00000"/>
  <variable name="u_5" index="114" value="39.00000"/>
  <variable name="u_6" index="115" value="39.00000"/>
  <variable name="u_7" index="116" value="27.00000"/>
  <variable name="u_8" index="117" value="3.00000"/>
  <variable name="u_9" index="118" value="12.00000"/>
  <variable name="u_10" index="119" value="32.00000"/>
 </variables>
</CPLEXSolution>
